
Gurobi 6.5.1 (win64) logging started 07/27/18 11:35:10


Gurobi 6.5.1 (win64) logging started 07/27/18 12:14:35


Gurobi 8.1.0 (win64, Python) logging started 02/25/20 15:05:02

Academic license - for non-commercial use only

Gurobi 8.1.0 (win64, Python) logging started 02/25/20 15:38:12

Academic license - for non-commercial use only

Gurobi 8.1.0 (win64, Python) logging started 02/25/20 16:03:47

Academic license - for non-commercial use only

Gurobi 8.1.0 (win64, Python) logging started 06/03/21 16:22:59


Gurobi 8.1.0 (win64, Python) logging started 06/03/21 16:25:01

Academic license - for non-commercial use only

Gurobi 8.1.0 (win64, Python) logging started 06/03/21 16:26:58

Academic license - for non-commercial use only

Gurobi 8.1.0 (win64, Python) logging started 06/03/21 16:33:50

Academic license - for non-commercial use only

Gurobi 8.1.0 (win64, Python) logging started 06/03/21 22:31:25

Academic license - for non-commercial use only

Gurobi 8.1.0 (win64, Python) logging started 06/03/21 22:52:41

Academic license - for non-commercial use only

Gurobi 8.1.0 (win64, Python) logging started 06/03/21 22:57:09

Academic license - for non-commercial use only

Gurobi 8.1.0 (win64, Python) logging started 06/03/21 22:57:58

Academic license - for non-commercial use only

Gurobi 8.1.0 (win64, Python) logging started 06/03/21 23:01:17

Academic license - for non-commercial use only

Gurobi 8.1.0 (win64, Python) logging started 06/03/21 23:05:37

Academic license - for non-commercial use only

Gurobi 8.1.0 (win64, Python) logging started 06/03/21 23:20:16

Academic license - for non-commercial use only

Gurobi 8.1.0 (win64, Python) logging started 06/04/21 12:19:27

Academic license - for non-commercial use only

Gurobi 8.1.0 (win64, Python) logging started 06/04/21 14:50:24

Academic license - for non-commercial use only

Gurobi 8.1.0 (win64, Python) logging started 06/04/21 15:00:12

Academic license - for non-commercial use only

Gurobi 8.1.0 (win64, Python) logging started 06/04/21 16:21:36

Academic license - for non-commercial use only

Gurobi 8.1.0 (win64, Python) logging started 06/04/21 16:27:36

Academic license - for non-commercial use only

Gurobi 8.1.0 (win64, Python) logging started 06/04/21 16:33:08

Academic license - for non-commercial use only

Gurobi 8.1.0 (win64, Python) logging started 06/04/21 19:55:16

Academic license - for non-commercial use only

Gurobi 8.1.0 (win64, Python) logging started 06/12/21 11:37:25

Academic license - for non-commercial use only
